ISTART = 1
PREC   = Accurate
ENCUT= 350
NELM = 600
EDIFF = 1E-05
#KPAR = 4
NCORE = 16
#LSORBIT = True
#ICHARG = 11
EDIFFG = -0.01
#LORBIT = 11
ISMEAR = 0
ALGO = Fast
SIGMA = 0.03
IBRION = -1
LREAL= Auto
LCHARG = F
LWAVE = F
ISYM = -1
IVDW = 12
NSW = 0
