G 5 5 1 0.01     # Parameters to Generate KPOINTS (Don't Edit This Line)
     250
Reciprocal lattice
  0.100000000000   0.100000000000   0.000000000000    2
  0.200000000000   0.100000000000   0.000000000000    2
  0.300000000000   0.100000000000   0.000000000000    2
  0.400000000000   0.100000000000   0.000000000000    2
  0.500000000000   0.100000000000   0.000000000000    2
  0.100000000000   0.200000000000   0.000000000000    2
  0.200000000000   0.200000000000   0.000000000000    2
  0.300000000000   0.200000000000   0.000000000000    2
  0.400000000000   0.200000000000   0.000000000000    2
  0.500000000000   0.200000000000   0.000000000000    2
  0.100000000000   0.300000000000   0.000000000000    2
  0.200000000000   0.300000000000   0.000000000000    2
  0.300000000000   0.300000000000   0.000000000000    2
  0.400000000000   0.300000000000   0.000000000000    2
  0.500000000000   0.300000000000   0.000000000000    2
  0.100000000000   0.400000000000   0.000000000000    2
  0.200000000000   0.400000000000   0.000000000000    2
  0.300000000000   0.400000000000   0.000000000000    2
  0.400000000000   0.400000000000   0.000000000000    2
  0.500000000000   0.400000000000   0.000000000000    2
  0.100000000000   0.500000000000   0.000000000000    2
  0.200000000000   0.500000000000   0.000000000000    2
  0.300000000000   0.500000000000   0.000000000000    2
  0.400000000000   0.500000000000   0.000000000000    2
  0.500000000000   0.500000000000   0.000000000000    1
  0.290000000000   0.290000000000   0.000000000000    2
  0.295000000000   0.290000000000   0.000000000000    2
  0.300000000000   0.290000000000   0.000000000000    2
  0.305000000000   0.290000000000   0.000000000000    2
  0.310000000000   0.290000000000   0.000000000000    2
  0.315000000000   0.290000000000   0.000000000000    2
  0.320000000000   0.290000000000   0.000000000000    2
  0.325000000000   0.290000000000   0.000000000000    2
  0.330000000000   0.290000000000   0.000000000000    2
  0.335000000000   0.290000000000   0.000000000000    2
  0.340000000000   0.290000000000   0.000000000000    2
  0.345000000000   0.290000000000   0.000000000000    2
  0.350000000000   0.290000000000   0.000000000000    2
  0.355000000000   0.290000000000   0.000000000000    2
  0.360000000000   0.290000000000   0.000000000000    2
  0.290000000000   0.295000000000   0.000000000000    2
  0.295000000000   0.295000000000   0.000000000000    2
  0.300000000000   0.295000000000   0.000000000000    2
  0.305000000000   0.295000000000   0.000000000000    2
  0.310000000000   0.295000000000   0.000000000000    2
  0.315000000000   0.295000000000   0.000000000000    2
  0.320000000000   0.295000000000   0.000000000000    2
  0.325000000000   0.295000000000   0.000000000000    2
  0.330000000000   0.295000000000   0.000000000000    2
  0.335000000000   0.295000000000   0.000000000000    2
  0.340000000000   0.295000000000   0.000000000000    2
  0.345000000000   0.295000000000   0.000000000000    2
  0.350000000000   0.295000000000   0.000000000000    2
  0.355000000000   0.295000000000   0.000000000000    2
  0.360000000000   0.295000000000   0.000000000000    2
  0.290000000000   0.300000000000   0.000000000000    2
  0.295000000000   0.300000000000   0.000000000000    2
  0.300000000000   0.300000000000   0.000000000000    2
  0.305000000000   0.300000000000   0.000000000000    2
  0.310000000000   0.300000000000   0.000000000000    2
  0.315000000000   0.300000000000   0.000000000000    2
  0.320000000000   0.300000000000   0.000000000000    2
  0.325000000000   0.300000000000   0.000000000000    2
  0.330000000000   0.300000000000   0.000000000000    2
  0.335000000000   0.300000000000   0.000000000000    2
  0.340000000000   0.300000000000   0.000000000000    2
  0.345000000000   0.300000000000   0.000000000000    2
  0.350000000000   0.300000000000   0.000000000000    2
  0.355000000000   0.300000000000   0.000000000000    2
  0.360000000000   0.300000000000   0.000000000000    2
  0.290000000000   0.305000000000   0.000000000000    2
  0.295000000000   0.305000000000   0.000000000000    2
  0.300000000000   0.305000000000   0.000000000000    2
  0.305000000000   0.305000000000   0.000000000000    2
  0.310000000000   0.305000000000   0.000000000000    2
  0.315000000000   0.305000000000   0.000000000000    2
  0.320000000000   0.305000000000   0.000000000000    2
  0.325000000000   0.305000000000   0.000000000000    2
  0.330000000000   0.305000000000   0.000000000000    2
  0.335000000000   0.305000000000   0.000000000000    2
  0.340000000000   0.305000000000   0.000000000000    2
  0.345000000000   0.305000000000   0.000000000000    2
  0.350000000000   0.305000000000   0.000000000000    2
  0.355000000000   0.305000000000   0.000000000000    2
  0.360000000000   0.305000000000   0.000000000000    2
  0.290000000000   0.310000000000   0.000000000000    2
  0.295000000000   0.310000000000   0.000000000000    2
  0.300000000000   0.310000000000   0.000000000000    2
  0.305000000000   0.310000000000   0.000000000000    2
  0.310000000000   0.310000000000   0.000000000000    2
  0.315000000000   0.310000000000   0.000000000000    2
  0.320000000000   0.310000000000   0.000000000000    2
  0.325000000000   0.310000000000   0.000000000000    2
  0.330000000000   0.310000000000   0.000000000000    2
  0.335000000000   0.310000000000   0.000000000000    2
  0.340000000000   0.310000000000   0.000000000000    2
  0.345000000000   0.310000000000   0.000000000000    2
  0.350000000000   0.310000000000   0.000000000000    2
  0.355000000000   0.310000000000   0.000000000000    2
  0.360000000000   0.310000000000   0.000000000000    2
  0.290000000000   0.315000000000   0.000000000000    2
  0.295000000000   0.315000000000   0.000000000000    2
  0.300000000000   0.315000000000   0.000000000000    2
  0.305000000000   0.315000000000   0.000000000000    2
  0.310000000000   0.315000000000   0.000000000000    2
  0.315000000000   0.315000000000   0.000000000000    2
  0.320000000000   0.315000000000   0.000000000000    2
  0.325000000000   0.315000000000   0.000000000000    2
  0.330000000000   0.315000000000   0.000000000000    2
  0.335000000000   0.315000000000   0.000000000000    2
  0.340000000000   0.315000000000   0.000000000000    2
  0.345000000000   0.315000000000   0.000000000000    2
  0.350000000000   0.315000000000   0.000000000000    2
  0.355000000000   0.315000000000   0.000000000000    2
  0.360000000000   0.315000000000   0.000000000000    2
  0.290000000000   0.320000000000   0.000000000000    2
  0.295000000000   0.320000000000   0.000000000000    2
  0.300000000000   0.320000000000   0.000000000000    2
  0.305000000000   0.320000000000   0.000000000000    2
  0.310000000000   0.320000000000   0.000000000000    2
  0.315000000000   0.320000000000   0.000000000000    2
  0.320000000000   0.320000000000   0.000000000000    2
  0.325000000000   0.320000000000   0.000000000000    2
  0.330000000000   0.320000000000   0.000000000000    2
  0.335000000000   0.320000000000   0.000000000000    2
  0.340000000000   0.320000000000   0.000000000000    2
  0.345000000000   0.320000000000   0.000000000000    2
  0.350000000000   0.320000000000   0.000000000000    2
  0.355000000000   0.320000000000   0.000000000000    2
  0.360000000000   0.320000000000   0.000000000000    2
  0.290000000000   0.325000000000   0.000000000000    2
  0.295000000000   0.325000000000   0.000000000000    2
  0.300000000000   0.325000000000   0.000000000000    2
  0.305000000000   0.325000000000   0.000000000000    2
  0.310000000000   0.325000000000   0.000000000000    2
  0.315000000000   0.325000000000   0.000000000000    2
  0.320000000000   0.325000000000   0.000000000000    2
  0.325000000000   0.325000000000   0.000000000000    2
  0.330000000000   0.325000000000   0.000000000000    2
  0.335000000000   0.325000000000   0.000000000000    2
  0.340000000000   0.325000000000   0.000000000000    2
  0.345000000000   0.325000000000   0.000000000000    2
  0.350000000000   0.325000000000   0.000000000000    2
  0.355000000000   0.325000000000   0.000000000000    2
  0.360000000000   0.325000000000   0.000000000000    2
  0.290000000000   0.330000000000   0.000000000000    2
  0.295000000000   0.330000000000   0.000000000000    2
  0.300000000000   0.330000000000   0.000000000000    2
  0.305000000000   0.330000000000   0.000000000000    2
  0.310000000000   0.330000000000   0.000000000000    2
  0.315000000000   0.330000000000   0.000000000000    2
  0.320000000000   0.330000000000   0.000000000000    2
  0.325000000000   0.330000000000   0.000000000000    2
  0.330000000000   0.330000000000   0.000000000000    2
  0.335000000000   0.330000000000   0.000000000000    2
  0.340000000000   0.330000000000   0.000000000000    2
  0.345000000000   0.330000000000   0.000000000000    2
  0.350000000000   0.330000000000   0.000000000000    2
  0.355000000000   0.330000000000   0.000000000000    2
  0.360000000000   0.330000000000   0.000000000000    2
  0.290000000000   0.335000000000   0.000000000000    2
  0.295000000000   0.335000000000   0.000000000000    2
  0.300000000000   0.335000000000   0.000000000000    2
  0.305000000000   0.335000000000   0.000000000000    2
  0.310000000000   0.335000000000   0.000000000000    2
  0.315000000000   0.335000000000   0.000000000000    2
  0.320000000000   0.335000000000   0.000000000000    2
  0.325000000000   0.335000000000   0.000000000000    2
  0.330000000000   0.335000000000   0.000000000000    2
  0.335000000000   0.335000000000   0.000000000000    2
  0.340000000000   0.335000000000   0.000000000000    2
  0.345000000000   0.335000000000   0.000000000000    2
  0.350000000000   0.335000000000   0.000000000000    2
  0.355000000000   0.335000000000   0.000000000000    2
  0.360000000000   0.335000000000   0.000000000000    2
  0.290000000000   0.340000000000   0.000000000000    2
  0.295000000000   0.340000000000   0.000000000000    2
  0.300000000000   0.340000000000   0.000000000000    2
  0.305000000000   0.340000000000   0.000000000000    2
  0.310000000000   0.340000000000   0.000000000000    2
  0.315000000000   0.340000000000   0.000000000000    2
  0.320000000000   0.340000000000   0.000000000000    2
  0.325000000000   0.340000000000   0.000000000000    2
  0.330000000000   0.340000000000   0.000000000000    2
  0.335000000000   0.340000000000   0.000000000000    2
  0.340000000000   0.340000000000   0.000000000000    2
  0.345000000000   0.340000000000   0.000000000000    2
  0.350000000000   0.340000000000   0.000000000000    2
  0.355000000000   0.340000000000   0.000000000000    2
  0.360000000000   0.340000000000   0.000000000000    2
  0.290000000000   0.345000000000   0.000000000000    2
  0.295000000000   0.345000000000   0.000000000000    2
  0.300000000000   0.345000000000   0.000000000000    2
  0.305000000000   0.345000000000   0.000000000000    2
  0.310000000000   0.345000000000   0.000000000000    2
  0.315000000000   0.345000000000   0.000000000000    2
  0.320000000000   0.345000000000   0.000000000000    2
  0.325000000000   0.345000000000   0.000000000000    2
  0.330000000000   0.345000000000   0.000000000000    2
  0.335000000000   0.345000000000   0.000000000000    2
  0.340000000000   0.345000000000   0.000000000000    2
  0.345000000000   0.345000000000   0.000000000000    2
  0.350000000000   0.345000000000   0.000000000000    2
  0.355000000000   0.345000000000   0.000000000000    2
  0.360000000000   0.345000000000   0.000000000000    2
  0.290000000000   0.350000000000   0.000000000000    2
  0.295000000000   0.350000000000   0.000000000000    2
  0.300000000000   0.350000000000   0.000000000000    2
  0.305000000000   0.350000000000   0.000000000000    2
  0.310000000000   0.350000000000   0.000000000000    2
  0.315000000000   0.350000000000   0.000000000000    2
  0.320000000000   0.350000000000   0.000000000000    2
  0.325000000000   0.350000000000   0.000000000000    2
  0.330000000000   0.350000000000   0.000000000000    2
  0.335000000000   0.350000000000   0.000000000000    2
  0.340000000000   0.350000000000   0.000000000000    2
  0.345000000000   0.350000000000   0.000000000000    2
  0.350000000000   0.350000000000   0.000000000000    2
  0.355000000000   0.350000000000   0.000000000000    2
  0.360000000000   0.350000000000   0.000000000000    2
  0.290000000000   0.355000000000   0.000000000000    2
  0.295000000000   0.355000000000   0.000000000000    2
  0.300000000000   0.355000000000   0.000000000000    2
  0.305000000000   0.355000000000   0.000000000000    2
  0.310000000000   0.355000000000   0.000000000000    2
  0.315000000000   0.355000000000   0.000000000000    2
  0.320000000000   0.355000000000   0.000000000000    2
  0.325000000000   0.355000000000   0.000000000000    2
  0.330000000000   0.355000000000   0.000000000000    2
  0.335000000000   0.355000000000   0.000000000000    2
  0.340000000000   0.355000000000   0.000000000000    2
  0.345000000000   0.355000000000   0.000000000000    2
  0.350000000000   0.355000000000   0.000000000000    2
  0.355000000000   0.355000000000   0.000000000000    2
  0.360000000000   0.355000000000   0.000000000000    2
  0.290000000000   0.360000000000   0.000000000000    2
  0.295000000000   0.360000000000   0.000000000000    2
  0.300000000000   0.360000000000   0.000000000000    2
  0.305000000000   0.360000000000   0.000000000000    2
  0.310000000000   0.360000000000   0.000000000000    2
  0.315000000000   0.360000000000   0.000000000000    2
  0.320000000000   0.360000000000   0.000000000000    2
  0.325000000000   0.360000000000   0.000000000000    2
  0.330000000000   0.360000000000   0.000000000000    2
  0.335000000000   0.360000000000   0.000000000000    2
  0.340000000000   0.360000000000   0.000000000000    2
  0.345000000000   0.360000000000   0.000000000000    2
  0.350000000000   0.360000000000   0.000000000000    2
  0.355000000000   0.360000000000   0.000000000000    2
  0.360000000000   0.360000000000   0.000000000000    2
