 H  C 
 1.0000000000000000
    17.3400851699999983   -0.0010233600000000    0.0000000000000000
    -8.6699759600000004   15.0171190600000006    0.0000000000000000
     0.0000000000000000    0.0000000000000000   36.0110529999999969
 H   C  
  18 238
Cartesian
  7.0254790600000003 -4.1733542000000003  8.8264940599999999
  7.9837184900000002 -2.5134145600000002  8.8329793599999995
 -3.1691314300000002 -0.0477347500000000  8.8177113800000004
 -0.6859573400000000  4.2529371200000003  8.7988405600000004
 -5.0859683899999997 -0.0478178200000000  8.8155951100000003
  3.5843094799999999  1.7875978400000001  8.8169563899999996
 -7.5687661500000001  4.2531056700000001  8.8044866899999992
  1.4599454599999999  3.0394467100000000  8.8066697200000004
 -1.6443246899999999  5.9130797299999998  8.8049126300000005
  2.0593853900000001 -4.1732556399999998  8.8330424500000007
 -9.7147863099999991  3.0400197200000001  8.8116840199999995
 -6.6104238799999999  5.9131888600000000  8.8124243799999995
  2.0376146700000000 -6.6387244699999997  8.8230912799999999
 -7.2101325300000001 -1.2990910200000001  8.8254337599999992
  5.5010617599999998  1.7875730200000000  8.8207711599999996
  7.0475765099999998 -6.6384290699999999  8.8147941400000001
 -1.0448410200000000 -1.2995285999999999  8.8291013300000003
  1.1010320400000000 -2.5130644200000001  8.8359200599999994
 -9.1684852400000008  2.0935021900000002  8.8150243100000001
 -1.6665819500000001 -6.6618544399999999  5.7152042500000002
 -0.4283378500000000 -4.5151327300000004  5.6201655800000001
  0.8080755900000000 -2.3711887900000002  5.4720177799999998
  2.0460834900000000 -0.2262572800000000  5.3894221299999998
  3.2848217300000000  1.9184164800000001  5.4649269499999997
  4.5233788800000001  4.0609400999999998  5.6145304100000004
 -11.5766717200000002  6.2074650800000004  5.7134283400000001
  0.8098530700000000 -6.6618428099999996  5.5753636599999998
  2.0467070999999999 -4.5166113000000001  5.4738436400000001
  4.5234268799999997 -0.2262348800000000  5.3787644700000001
  3.2833036099999999  6.2065416700000000  5.7122453799999997
  5.7619997800000000  1.9182600100000000  5.4661637399999998
 -10.3385521899999997  4.0628998400000000  5.5707913600000003
 -9.0984670199999993  6.2085399600000004  5.6172129999999996
  3.2844627900000001 -6.6621381599999996  5.4252112600000002
  4.5233873600000001 -4.5172458799999999  5.3941255100000003
  5.7622458800000000 -2.3720528100000000  5.3817895499999997
  7.0007353700000001 -0.2265529600000000  5.3897169399999996
 -9.1011108200000006  1.9199169599999999  5.4204830900000003
 -7.8622802800000002  4.0647106400000004  5.4633153400000003
 -6.6236666099999999  6.2098780400000004  5.4651573899999999
  3.2845685499999999 -2.3718790400000000  5.3827213199999999
  2.0452821499999998  4.0621614399999997  5.5679798299999996
 -1.6683385100000001 -2.3694087399999999  5.5735181799999998
 -0.4311069100000000 -0.2264052600000000  5.4217895100000000
  5.9351275399999999 -4.1413601000000000  8.8276627199999993
 -5.5200536299999996  5.8811942600000000  8.8102991700000004
  8.1700370600000003 -0.3727026100000000  8.8237881100000006
 -7.7565799999999996 -0.3526469200000000  8.8221445400000000
 -0.4998662700000000  2.1121838999999998  8.8105548299999992
  6.0185025599999999  0.8272784100000000  8.8233044300000003
 -5.6034395600000000  0.9125281400000000  8.8127157000000000
  1.6738987299999999 -1.5847168100000000  8.8313621300000005
 -1.2588265300000001  3.3246148999999998  8.8032445999999993
 -6.9959035099999998  3.3248100300000001  8.8070277899999994
 -7.0329516600000002  0.8616256500000000  8.8163787500000002
  7.4110031400000000 -1.5850116999999999  8.8298231099999995
 -2.7346840200000000  5.8811829800000002  8.8063927199999998
  7.4479603200000000  0.8781723500000000  8.8200047700000006
  5.7622622699999999 -6.6623186900000002  5.4229968800000004
 -2.6514710400000001  0.9124642600000000  8.8130551599999993
  3.0666115199999999  0.8274357700000000  8.8213555299999999
 -4.1467590500000000 -6.6617573400000003  5.7668850300000001
 -2.9064148200000002 -5.9457246399999999  5.7496153799999998
 -2.9066512900000001 -4.5139599400000003  5.7145823000000000
 -1.2220049600000000  0.8613389700000000  8.8162364100000001
  0.8078452500000000  1.9193116800000001  5.4178385799999997
  3.1497570700000002 -4.1413672000000004  8.8310129499999999
  7.0000916999999996 -4.5170096400000004  5.4710995699999998
 -7.8622528799999998 -0.2259905200000000  5.4222268400000004
  7.0007906699999998  2.6333088099999999  5.4843642800000003
 -9.0992537500000008  4.7784313000000003  5.5579818400000001
 -7.8602447399999997  6.9242482799999996  5.5602407200000004
  4.5233770700000004 -5.9472835899999996  5.4011048600000002
  5.7623419199999999 -3.8022623100000001  5.4024080400000001
  7.0009194700000004 -1.6570670999999999  5.4004958600000004
  8.2392169699999993  0.4884519100000000  5.3973418400000002
 -7.8625470000000002  2.6349321300000002  5.4116671299999997
 -6.6238276400000000  4.7798450399999997  5.4293216299999996
 -5.3855187500000001  6.9248842300000000  5.4143229300000000
  7.0000499200000004 -5.9473616700000003  5.4874362899999998
  8.2379785200000004 -3.8015297499999998  5.5245783900000003
  9.4773980299999998 -1.6564797400000000  5.4874445900000000
 -6.6236982099999997  0.4890548300000000  5.4127109999999998
 -5.3854942699999997  2.6344175299999999  5.3636597699999999
 -4.1466633399999999  4.7799601500000000  5.3627615200000003
 -2.9077199399999998  6.9247168300000004  5.4119064600000000
  9.4745276199999999 -5.9470642099999997  5.6478412300000000
 10.7142618200000008 -3.7998443399999999  5.6482179199999996
 -5.3856919599999999 -1.6537860799999999  5.5586355100000002
 -4.1466992999999999  0.4892315000000000  5.4292953700000002
 -2.9078651000000000  2.6342489400000000  5.3621130700000004
 -1.6693825300000000  4.7795202500000000  5.4253694899999996
 -0.4329268500000000  6.9237180299999999  5.5562877600000000
 11.9530089099999994 -5.9466616700000001  5.7488715299999997
 -4.1467385099999996 -3.7981030900000001  5.6969697300000002
 -2.9077287500000000 -1.6538885400000001  5.5587788800000002
 -1.6696657900000000  0.4887688500000000  5.4118339700000000
 -0.4307083700000000  2.6344498199999999  5.4083643800000001
  5.7619875900000004  0.4889489200000000  5.3976275999999999
  4.5234323800000000 -1.6567413499999999  5.3642437799999998
  3.2844692400000000 -3.8020707100000002  5.4039396999999996
  2.0467634399999999 -5.9469896300000000  5.4907135699999996
 -6.6239704399999999  1.9194201300000000  5.3809194299999996
 -5.3857591600000001  4.0650114100000003  5.3683340499999996
 -4.1466601000000001  6.2099799899999999  5.3810475699999998
  8.2368829800000007 -6.6624033599999999  5.5718995900000001
  9.4750032900000001 -4.5158263400000003  5.6181667099999997
 -6.6250920000000004 -2.3691868000000000  5.5728489400000001
 -5.3853199399999996 -0.2256398200000000  5.4641520500000000
 -4.1467006900000003  1.9188288899999999  5.3684116800000004
 -2.9075874000000002  4.0648426700000000  5.3661789999999998
 -1.6695340200000000  6.2095421599999998  5.4611540500000002
 10.7131846700000004 -6.6626545999999998  5.7134181999999996
 -5.3868381200000002 -4.5138648799999999  5.7139695300000000
 -4.1467212699999996 -2.3682963500000001  5.6166618499999998
 -2.9080903899999999 -0.2257498000000000  5.4639280499999998
  8.2386767899999995 -2.3717211499999999  5.4704772500000001
 -1.6693725500000001  1.9191095100000000  5.3787604800000004
  0.8052415100000000  6.2079051500000002  5.6136711600000000
 -1.6676157400000000 -3.7990281700000001  5.6493263599999999
 -0.4306801700000000 -1.6558246000000001  5.4881851700000004
  0.8075959200000000  0.4888759500000000  5.3962210700000002
  2.0460716699999999  2.6336232200000000  5.4818047600000002
  3.2836562699999998  4.7761541500000000  5.6448430900000002
  4.5233526499999996  6.9221173399999998  5.7484173800000002
 -0.4278634000000000 -5.9463726899999996  5.6503706899999999
  0.8087858999999999 -3.8009906299999998  5.5269182099999998
  2.0459025799999999 -1.6567606200000000  5.4014951599999996
  3.2848725200000000  0.4890786700000000  5.3970675799999999
  4.5234060600000001  2.6326326000000000  5.5193570500000000
  5.7631081000000002  4.7760138599999999  5.6462594700000004
 -10.3366973800000004  6.9234218199999997  5.6974367900000003
 -0.4309340100000000  4.0642690300000002  5.4590980800000004
 -7.7550204100000002  2.1125212900000001  8.8130375099999991
 -0.4281145800000000 -0.2002082400000000 12.2145953899999995
  0.9136110400000000  2.0929517500000001  8.8118036400000008
 -4.1437071000000003 -6.6352553900000002 11.8675083299999997
 -11.5735541899999994  6.2339052600000002 11.9204496500000001
 -10.3352911600000006  4.0892938299999999 12.0622454300000008
 -9.0981341800000006  1.9461347800000000 12.2129299800000002
 -5.3823108599999996 -0.1991102700000000 12.1680608100000001
 -4.1437185599999999 -2.3418024700000002 12.0199140500000006
 -2.9036460000000002 -4.4874516499999997 11.9219599299999999
 -1.6635356200000000 -6.6353776099999999 11.9208057699999994
 -9.0952839200000000  6.2348721899999999 12.0166722900000007
 -7.8589851900000003  4.0907788500000004 12.1642954599999999
 -6.6210220800000004  1.9456824300000000 12.2446698699999992
 -2.9051161699999999 -0.1992569800000000 12.1674207100000000
 -5.3837741100000001 -4.4873719599999999 11.9225169700000002
 -1.6655972900000000 -2.3430456799999999 12.0653416500000006
  0.8127756900000001 -6.6356639099999999 12.0635584399999995
 -6.6203845599999998  6.2360149700000003 12.1644985699999992
 -5.3825392399999998  4.0910549700000001 12.2525969799999999
 -4.1437050900000001  1.9453067200000000 12.2543150300000008
  2.0491579400000002 -3.0603691000000000 12.2084342400000008
  3.2874212599999999 -5.2056302600000004 12.2250043700000006
  4.5263196199999998 -7.3507957800000003 12.2373068499999995
 -2.9047306900000001  5.5210629999999998 12.2334969400000002
 -1.6661577299999999  3.3757729699999999 12.2333312099999993
 -0.4278335700000000  1.2302073200000001 12.2369074300000005
  3.2875875200000002 -0.9150836700000000 12.2717477299999995
  4.5263873300000004 -3.0608037299999999 12.2732409499999999
 -0.4255147000000000 -4.4888328700000004 12.0206203299999999
 -6.6218117599999999 -2.3428049400000002 12.0661597500000006
 -7.8592324600000003 -0.1997426400000000 12.2153520499999999
  5.7649948799999997  1.9447817300000001 12.1709426599999997
  0.8104442900000000 -0.9153297400000000 12.2244089099999993
  0.8106920100000000 -2.3451276399999998 12.1740345399999992
  2.0492888499999999 -4.4904543900000000 12.1739627299999995
  3.2873909399999999 -6.6357345399999996 12.2142593900000005
 -4.1436607800000003  6.2362342499999999 12.2433838900000005
 -2.9048337200000001  4.0908571100000000 12.2524052399999999
 -1.6663301200000000  1.9453159400000000 12.2438746900000002
  2.0491009099999999 -0.1999902900000000 12.2546955600000000
  3.2873256700000000 -2.3456633299999998 12.2680277800000006
  4.5263788399999996 -4.4908678899999996 12.2568493899999993
  5.7652764899999998 -6.6359196000000003 12.2147341199999993
 -1.6669006900000001  6.2356442300000001 12.1652630199999994
 -0.4283023700000000  4.0902267300000004 12.1644073600000002
  0.8108656800000000  1.9454795899999999 12.2126390499999999
  4.5264111900000001 -0.1996792200000000 12.2661242000000001
  5.7654615500000004 -2.3458167799999998 12.2681149600000001
  7.0034379400000004 -4.4908071899999999 12.1748949700000004
  8.2399147999999993 -6.6362044600000001 12.0649201999999995
  0.8080467200000000  6.2341870600000000 12.0178702400000006
  2.0480552400000001  4.0885120800000001 12.0627618800000000
  3.2878139399999999  1.9448833699999999 12.1710767200000003
  7.0036866800000004 -0.2002359800000000 12.2548858099999993
  8.2420085000000007 -2.3455700400000001 12.1748526500000001
  9.4781607399999999 -4.4894664600000000 12.0217711000000005
 10.7161915600000004 -6.6361670200000002 11.9220100700000007
  3.2862839600000000  6.2330269100000004 11.9211054099999991
  4.5263946700000002  4.0873902500000003 12.0186236700000002
  5.7652719299999999 -5.2058163000000004 12.2254883099999994
 -0.4984978600000000 -0.3530500700000000  8.8233863899999996
  7.0030222799999997 -7.3510810500000003 12.1496060499999992
  0.8104289600000000  3.3749234800000001 12.1477001399999995
  0.8126562200000000 -5.2046640799999997 12.0787362100000006
  2.0496269599999999 -7.3507053800000000 12.1485659100000003
 -5.3826429600000001  5.5212430599999998 12.2333142000000006
 -4.1437070599999997  3.3757689100000001 12.2694623000000007
 -2.9051513500000001  1.2300267300000001 12.2354637200000003
  5.2710155500000004 -2.9134709499999998  8.8301966699999994
 -4.8559407099999996  4.6532995899999996  8.8065514100000009
  0.9149510800000000 -0.3722745900000000  8.8242208499999997
  1.6371249600000000  0.8785631900000000  8.8183430000000005
 -3.4051777900000002  7.1446845500000000  8.8130054199999996
 -4.8495049000000003  7.1446712000000003  8.8152312599999991
  5.9547015999999999 -6.6385840299999996  8.8167792400000007
 -0.4263350400000000 -3.0587199400000000 12.0794450599999994
  3.1304746400000001 -6.6386586999999997  8.8210173300000001
  3.0693367000000000 -1.6236281200000000  8.8307126999999994
 -2.6542650900000000  3.3635536699999999  8.8044061599999992
 -4.8719859799999998  2.1015627800000001  8.8089553899999995
 -5.6004760200000003  3.3635839600000002  8.8066597699999996
  6.0155734100000000 -1.6237367800000000  8.8296239199999995
 -3.3988057600000001  4.6532968900000000  8.8047807500000008
  3.8138403900000002 -2.9134515200000002  8.8315549299999994
 -3.3827908400000002  2.1015719399999999  8.8084847600000007
  3.7979211700000000 -0.3616564200000000  8.8265994800000005
  0.8060461600000000  4.7778351499999996  5.5541712399999996
  5.2646558199999998 -5.4048525800000000  8.8222133300000003
  3.8203406100000001 -5.4048472600000004  8.8242631300000003
  5.2870816999999999 -0.3617401500000000  8.8269190200000001
 -1.6663538600000001 -0.9144679900000000 12.1505801099999999
 -5.3822896299999998  1.2301879099999999 12.2360920499999999
 -6.6212214800000000  3.3761509099999998 12.2337699900000008
  2.0494115200000000  1.2303252300000000 12.2224146200000003
  5.7651982300000002 -0.9152361200000000 12.2716911599999996
  7.0035745399999998 -3.0607170799999999 12.2090890600000002
  8.2400099600000001 -5.2052015699999998 12.0799857399999997
  9.4775460700000007 -7.3516736399999996 11.9884043699999996
  2.0472902500000001  5.5181006100000003 11.9873982100000003
  3.2874254700000001  3.3730130500000000 12.0767487500000001
  4.5264014499999998  1.2299006600000000 12.2054291799999994
  8.2422799599999994 -0.9157434400000000 12.2249949800000000
  9.4789788999999995 -3.0593401800000000 12.0804162399999999
 10.7163264100000006 -5.2043396499999997 11.9399861400000002
 11.9560130099999995 -7.3523064400000004 11.8858828200000008
  4.5263923100000003  5.5171576000000000 11.9379904400000001
  5.7653743700000000  3.3729156800000002 12.0764733700000004
  7.0033821500000002  1.2300954099999999 12.2225055699999992
 -6.6210545099999996 -0.9142151900000000 12.1514490399999993
 -5.3834259400000004 -3.0569624599999998 11.9897138400000003
 -4.1437089000000000 -5.2030632800000003 11.8862198699999997
 -2.9033613100000002 -7.3514254299999999 11.8851611399999992
 -10.3345394800000001  5.5188800400000000 11.9864777300000007
 -9.0977004600000004  3.3755780600000000 12.1475667400000003
 -7.8594923200000002  1.2306805800000000 12.2375770100000008
 -4.1437365399999999 -0.9134514100000000 12.1141436700000007
 -2.9040192299999998 -3.0570497099999998 11.9892087000000007
 -1.6637051100000000 -5.2035545699999997 11.9389385200000007
 -0.4248828100000000 -7.3509877899999996 11.9869651299999997
 -7.8582634499999999  5.5205675599999999 12.1103664500000008
 -0.4290302200000000  5.5200316400000000 12.1111570700000009
  2.0433943600000002  6.9226436700000002  5.6952198100000002
